backend/data/formal_work/formal_73c65fcc/assertions/formal_73c65fcc__07_ap_fifo_read_write_equal/formal_73c65fcc__07_ap_fifo_read_write_equal_bmc/model/design_smt2.smt2
; SMT-LIBv2 description generated by Yosys 0.63+184 (git sha1 240439bdb-dirty, aarch64-apple-darwin23.5-clang++ 18.1.8 -fPIC -O3)
; yosys-smt2-module fifo
(declare-sort |fifo_s| 0)
(declare-fun |fifo_is| (|fifo_s|) Bool)
; yosys-smt2-witness {"offset": 0, "path": ["$auto$async2sync.cc:116:execute$170"], "smtname": 0, "smtoffset": 0, "type": "reg", "width": 1}
(declare-fun |fifo#0| (|fifo_s|) (_ BitVec 1)) ; $auto$async2sync.cc:116:execute$170
; yosys-smt2-register $auto$async2sync.cc:116:execute$170 1
(define-fun |fifo_n $auto$async2sync.cc:116:execute$170| ((state |fifo_s|)) Bool (= ((_ extract 0 0) (|fifo#0| state)) #b1))
; yosys-smt2-anyinit fifo#1 1 formal_73c65fcc__07_ap_fifo_read_write_equal_monitor.sv:177.5-186.8
; yosys-smt2-witness {"offset": 0, "path": ["\\_va_ap_fifo_read_write_equal_delay_3"], "smtname": 1, "smtoffset": 0, "type": "init", "width": 1}
(declare-fun |fifo#1| (|fifo_s|) (_ BitVec 1)) ; \_va_ap_fifo_read_write_equal_delay_3
; yosys-smt2-register _va_ap_fifo_read_write_equal_delay_3 1
; yosys-smt2-wire _va_ap_fifo_read_write_equal_delay_3 1
(define-fun |fifo_n _va_ap_fifo_read_write_equal_delay_3| ((state |fifo_s|)) Bool (= ((_ extract 0 0) (|fifo#1| state)) #b1))
(declare-fun |fifo#2| (|fifo_s|) (_ BitVec 1)) ; \full_out
; yosys-smt2-anyinit fifo#3 1 formal_73c65fcc__07_ap_fifo_read_write_equal_monitor.sv:19.5-29.8
; yosys-smt2-witness {"offset": 0, "path": ["\\full_out_prev"], "smtname": 3, "smtoffset": 0, "type": "init", "width": 1}
(declare-fun |fifo#3| (|fifo_s|) (_ BitVec 1)) ; \full_out_prev
(define-fun |fifo#4| ((state |fifo_s|)) Bool (= (|fifo#2| state) (|fifo#3| state))) ; $eq$formal_73c65fcc__07_ap_fifo_read_write_equal_monitor.sv:182$81_Y
(declare-fun |fifo#5| (|fifo_s|) (_ BitVec 1)) ; \empty_out
; yosys-smt2-anyinit fifo#6 1 formal_73c65fcc__07_ap_fifo_read_write_equal_monitor.sv:19.5-29.8
; yosys-smt2-witness {"offset": 0, "path": ["\\empty_out_prev"], "smtname": 6, "smtoffset": 0, "type": "init", "width": 1}
(declare-fun |fifo#6| (|fifo_s|) (_ BitVec 1)) ; \empty_out_prev
(define-fun |fifo#7| ((state |fifo_s|)) Bool (= (|fifo#5| state) (|fifo#6| state))) ; $eq$formal_73c65fcc__07_ap_fifo_read_write_equal_monitor.sv:183$82_Y
(define-fun |fifo#8| ((state |fifo_s|)) Bool (and (or  (|fifo#4| state) false) (or  (|fifo#7| state) false))) ; $logic_and$formal_73c65fcc__07_ap_fifo_read_write_equal_monitor.sv:182$83_Y
(define-fun |fifo#9| ((state |fifo_s|)) Bool (not (or  (|fifo#8| state) false))) ; $logic_not$formal_73c65fcc__07_ap_fifo_read_write_equal_monitor.sv:182$84_Y
(define-fun |fifo#10| ((state |fifo_s|)) Bool (and (or  (= ((_ extract 0 0) (|fifo#1| state)) #b1) false) (or  (|fifo#9| state) false))) ; $logic_and$formal_73c65fcc__07_ap_fifo_read_write_equal_monitor.sv:182$85_Y
(define-fun |fifo#11| ((state |fifo_s|)) (_ BitVec 1) (ite (|fifo#10| state) #b1 #b0)) ; $procmux$103_Y
(declare-fun |fifo#12| (|fifo_s|) (_ BitVec 1)) ; \rst_n_in
(define-fun |fifo#13| ((state |fifo_s|)) (_ BitVec 1) (ite (= ((_ extract 0 0) (|fifo#12| state)) #b1) (|fifo#11| state) #b0)) ; \ap_fifo_read_write_equal_EN
; yosys-smt2-wire ap_fifo_read_write_equal_EN 1
(define-fun |fifo_n ap_fifo_read_write_equal_EN| ((state |fifo_s|)) Bool (= ((_ extract 0 0) (|fifo#13| state)) #b1))
(declare-fun |fifo#14| (|fifo_s|) Bool) ; \clk_in
; yosys-smt2-input clk_in 1
; yosys-smt2-wire clk_in 1
; yosys-smt2-clock clk_in posedge
; yosys-smt2-witness {"offset": 0, "path": ["\\clk_in"], "smtname": "clk_in", "smtoffset": 0, "type": "posedge", "width": 1}
; yosys-smt2-witness {"offset": 0, "path": ["\\clk_in"], "smtname": "clk_in", "smtoffset": 0, "type": "input", "width": 1}
(define-fun |fifo_n clk_in| ((state |fifo_s|)) Bool (|fifo#14| state))
(define-fun |fifo#15| ((state |fifo_s|)) (_ BitVec 1) (ite (= ((_ extract 0 0) (|fifo#5| state)) #b1) #b1 #b0)) ; $procmux$108_Y
(define-fun |fifo#16| ((state |fifo_s|)) (_ BitVec 1) (ite (= ((_ extract 0 0) (|fifo#12| state)) #b1) (|fifo#15| state) #b0)) ; \cp_fifo_empty_no_read_EN
; yosys-smt2-wire cp_fifo_empty_no_read_EN 1
(define-fun |fifo_n cp_fifo_empty_no_read_EN| ((state |fifo_s|)) Bool (= ((_ extract 0 0) (|fifo#16| state)) #b1))
(define-fun |fifo#17| ((state |fifo_s|)) (_ BitVec 1) (ite (= ((_ extract 0 0) (|fifo#2| state)) #b1) #b1 #b0)) ; $procmux$96_Y
(define-fun |fifo#18| ((state |fifo_s|)) (_ BitVec 1) (ite (= ((_ extract 0 0) (|fifo#12| state)) #b1) (|fifo#17| state) #b0)) ; \cp_fifo_full_no_write_EN
; yosys-smt2-wire cp_fifo_full_no_write_EN 1
(define-fun |fifo_n cp_fifo_full_no_write_EN| ((state |fifo_s|)) Bool (= ((_ extract 0 0) (|fifo#18| state)) #b1))
(declare-fun |fifo#19| (|fifo_s|) Bool) ; \data_start
; yosys-smt2-input data_start 1
; yosys-smt2-wire data_start 1
; yosys-smt2-witness {"offset": 0, "path": ["\\data_start"], "smtname": "data_start", "smtoffset": 0, "type": "input", "width": 1}
(define-fun |fifo_n data_start| ((state |fifo_s|)) Bool (|fifo#19| state))
; yosys-smt2-input empty_out 1
; yosys-smt2-wire empty_out 1
; yosys-smt2-witness {"offset": 0, "path": ["\\empty_out"], "smtname": "empty_out", "smtoffset": 0, "type": "input", "width": 1}
(define-fun |fifo_n empty_out| ((state |fifo_s|)) Bool (= ((_ extract 0 0) (|fifo#5| state)) #b1))
; yosys-smt2-register empty_out_prev 1
; yosys-smt2-wire empty_out_prev 1
(define-fun |fifo_n empty_out_prev| ((state |fifo_s|)) Bool (= ((_ extract 0 0) (|fifo#6| state)) #b1))
; yosys-smt2-input full_out 1
; yosys-smt2-wire full_out 1
; yosys-smt2-witness {"offset": 0, "path": ["\\full_out"], "smtname": "full_out", "smtoffset": 0, "type": "input", "width": 1}
(define-fun |fifo_n full_out| ((state |fifo_s|)) Bool (= ((_ extract 0 0) (|fifo#2| state)) #b1))
; yosys-smt2-register full_out_prev 1
; yosys-smt2-wire full_out_prev 1
(define-fun |fifo_n full_out_prev| ((state |fifo_s|)) Bool (= ((_ extract 0 0) (|fifo#3| state)) #b1))
(declare-fun |fifo#20| (|fifo_s|) Bool) ; \rd_data_out
; yosys-smt2-input rd_data_out 1
; yosys-smt2-wire rd_data_out 1
; yosys-smt2-witness {"offset": 0, "path": ["\\rd_data_out"], "smtname": "rd_data_out", "smtoffset": 0, "type": "input", "width": 1}
(define-fun |fifo_n rd_data_out| ((state |fifo_s|)) Bool (|fifo#20| state))
(declare-fun |fifo#21| (|fifo_s|) Bool) ; \rd_en_in
; yosys-smt2-input rd_en_in 1
; yosys-smt2-wire rd_en_in 1
; yosys-smt2-witness {"offset": 0, "path": ["\\rd_en_in"], "smtname": "rd_en_in", "smtoffset": 0, "type": "input", "width": 1}
(define-fun |fifo_n rd_en_in| ((state |fifo_s|)) Bool (|fifo#21| state))
; yosys-smt2-input rst_n_in 1
; yosys-smt2-wire rst_n_in 1
; yosys-smt2-witness {"offset": 0, "path": ["\\rst_n_in"], "smtname": "rst_n_in", "smtoffset": 0, "type": "input", "width": 1}
(define-fun |fifo_n rst_n_in| ((state |fifo_s|)) Bool (= ((_ extract 0 0) (|fifo#12| state)) #b1))
; yosys-smt2-witness {"offset": 0, "path": ["$auto$async2sync.cc:107:execute$166"], "smtname": 22, "smtoffset": 0, "type": "reg", "width": 1}
(declare-fun |fifo#22| (|fifo_s|) (_ BitVec 1)) ; $auto$async2sync.cc:107:execute$166
; yosys-smt2-register $auto$async2sync.cc:107:execute$166 1
(define-fun |fifo_n $auto$async2sync.cc:107:execute$166| ((state |fifo_s|)) Bool (= ((_ extract 0 0) (|fifo#22| state)) #b1))
(declare-fun |fifo#23| (|fifo_s|) Bool) ; \wr_data_in
; yosys-smt2-input wr_data_in 1
; yosys-smt2-wire wr_data_in 1
; yosys-smt2-witness {"offset": 0, "path": ["\\wr_data_in"], "smtname": "wr_data_in", "smtoffset": 0, "type": "input", "width": 1}
(define-fun |fifo_n wr_data_in| ((state |fifo_s|)) Bool (|fifo#23| state))
(declare-fun |fifo#24| (|fifo_s|) Bool) ; \wr_en_in
; yosys-smt2-input wr_en_in 1
; yosys-smt2-wire wr_en_in 1
; yosys-smt2-witness {"offset": 0, "path": ["\\wr_en_in"], "smtname": "wr_en_in", "smtoffset": 0, "type": "input", "width": 1}
(define-fun |fifo_n wr_en_in| ((state |fifo_s|)) Bool (|fifo#24| state))
(define-fun |fifo#25| ((state |fifo_s|)) (_ BitVec 1) (bvnot (ite (|fifo#14| state) #b1 #b0))) ; $auto$rtlil.cc:3255:Not$238
; yosys-smt2-assume 0 $auto$formalff.cc:987:execute$239
(define-fun |fifo_u 0| ((state |fifo_s|)) Bool (or (= ((_ extract 0 0) (|fifo#25| state)) #b1) (not true))) ; $auto$formalff.cc:987:execute$239
; yosys-smt2-assert 0 ap_fifo_read_write_equal
(define-fun |fifo_a 0| ((state |fifo_s|)) Bool (or (= ((_ extract 0 0) (|fifo#0| state)) #b1) (not (= ((_ extract 0 0) (|fifo#22| state)) #b1)))) ; ap_fifo_read_write_equal
(define-fun |fifo#26| ((state |fifo_s|)) Bool (not (or  (|fifo#21| state) false))) ; $logic_not$formal_73c65fcc__07_ap_fifo_read_write_equal_monitor.sv:225$95_Y
; yosys-smt2-assume 1 cp_fifo_empty_no_read
(define-fun |fifo_u 1| ((state |fifo_s|)) Bool (or (|fifo#26| state) (not (= ((_ extract 0 0) (|fifo#16| state)) #b1)))) ; cp_fifo_empty_no_read
(define-fun |fifo#27| ((state |fifo_s|)) Bool (not (or  (|fifo#24| state) false))) ; $logic_not$formal_73c65fcc__07_ap_fifo_read_write_equal_monitor.sv:214$91_Y
; yosys-smt2-assume 2 cp_fifo_full_no_write
(define-fun |fifo_u 2| ((state |fifo_s|)) Bool (or (|fifo#27| state) (not (= ((_ extract 0 0) (|fifo#18| state)) #b1)))) ; cp_fifo_full_no_write
(define-fun |fifo#28| ((state |fifo_s|)) (_ BitVec 1) (ite (= ((_ extract 0 0) (|fifo#12| state)) #b1) (|fifo#5| state) #b0)) ; $0\empty_out_prev[0:0]
(define-fun |fifo#29| ((state |fifo_s|)) (_ BitVec 1) (ite (= ((_ extract 0 0) (|fifo#12| state)) #b1) (|fifo#2| state) #b0)) ; $0\full_out_prev[0:0]
(define-fun |fifo#30| ((state |fifo_s|)) Bool (= (ite (|fifo#21| state) #b1 #b0) (ite (|fifo#24| state) #b1 #b0))) ; $eq$formal_73c65fcc__07_ap_fifo_read_write_equal_monitor.sv:181$80_Y
(define-fun |fifo#31| ((state |fifo_s|)) (_ BitVec 1) (ite (= ((_ extract 0 0) (|fifo#12| state)) #b1) (ite (|fifo#30| state) #b1 #b0) #b0)) ; $0\_va_ap_fifo_read_write_equal_delay_3[0:0]
(define-fun |fifo_a| ((state |fifo_s|)) Bool 
  (|fifo_a 0| state)
)
(define-fun |fifo_u| ((state |fifo_s|)) Bool (and
  (|fifo_u 0| state)
  (|fifo_u 1| state)
  (|fifo_u 2| state)
))
(define-fun |fifo_i| ((state |fifo_s|)) Bool (and
  (= (= ((_ extract 0 0) (|fifo#0| state)) #b1) true) ; $auto$async2sync.cc:116:execute$170
  (= (= ((_ extract 0 0) (|fifo#22| state)) #b1) false) ; $auto$async2sync.cc:107:execute$166
))
(define-fun |fifo_h| ((state |fifo_s|)) Bool true)
(define-fun |fifo_t| ((state |fifo_s|) (next_state |fifo_s|)) Bool (and
  (= (|fifo#13| state) (|fifo#22| next_state)) ; $auto$async2sync.cc:110:execute$168 $auto$async2sync.cc:107:execute$166
  (= (|fifo#28| state) (|fifo#6| next_state)) ; $procdff$163 \empty_out_prev
  (= (|fifo#29| state) (|fifo#3| next_state)) ; $procdff$164 \full_out_prev
  (= (|fifo#31| state) (|fifo#1| next_state)) ; $procdff$156 \_va_ap_fifo_read_write_equal_delay_3
  (= #b0 (|fifo#0| next_state)) ; $auto$async2sync.cc:118:execute$171 $auto$async2sync.cc:116:execute$170
)) ; end of module fifo
; yosys-smt2-topmod fifo
; end of yosys output
